c FILE: I9.clq
c
c SOURCE: Manually created by Breno Viana
c
c Graph Stats
c number of vertices  : 20
c number of edges     : 31
p col 20 31
e 1 2
e 1 3
e 1 4
e 1 5
e 2 4
e 3 4
e 3 5
e 3 7
e 3 9
e 3 10
e 4 5
e 4 6
e 5 7
e 5 9
e 7 8
e 7 9
e 9 10
e 10 11
e 11 12
e 11 13
e 12 13
e 12 15
e 13 14
e 15 16
e 15 17
e 15 18
e 15 19
e 17 18
e 17 19
e 18 19
e 19 20
